50 1225
1 2 492
1 3 918
1 4 583
1 5 380
1 6 60
1 7 127
1 8 320
1 9 113
1 10 736
1 11 216
1 12 634
1 13 406
1 14 312
1 15 294
1 16 185
1 17 464
1 18 203
1 19 160
1 20 856
1 21 941
1 22 703
1 23 224
1 24 683
1 25 354
1 26 541
1 27 246
1 28 615
1 29 619
1 30 413
1 31 264
1 32 132
1 33 201
1 34 590
1 35 798
1 36 401
1 37 531
1 38 484
1 39 209
1 40 658
1 41 320
1 42 611
1 43 512
1 44 283
1 45 412
1 46 418
1 47 207
1 48 462
1 49 661
1 50 482
2 3 645
2 4 96
2 5 112
2 6 459
2 7 418
2 8 733
2 9 379
2 10 245
2 11 286
2 12 827
2 13 766
2 14 677
2 15 274
2 16 577
2 17 471
2 18 605
2 19 572
2 20 501
2 21 670
2 22 211
2 23 567
2 24 461
2 25 249
2 26 821
2 27 664
2 28 643
2 29 461
2 30 325
2 31 686
2 32 542
2 33 674
2 34 231
2 35 349
2 36 301
2 37 52
2 38 445
2 39 369
2 40 494
2 41 362
2 42 125
2 43 472
2 44 334
2 45 344
2 46 395
2 47 690
2 48 395
2 49 940
2 50 177
3 4 658
3 5 675
3 6 927
3 7 792
3 8 1235
3 9 847
3 10 587
3 11 817
3 12 720
3 13 1306
3 14 1209
3 15 635
3 16 1084
3 17 492
3 18 1108
3 19 877
3 20 187
3 21 25
3 22 618
3 23 1100
3 24 235
3 25 580
3 26 827
3 27 1160
3 28 470
3 29 306
3 30 505
3 31 935
3 32 867
3 33 1116
3 34 415
3 35 835
3 36 519
3 37 670
3 38 456
3 39 927
3 40 273
3 41 600
3 42 579
3 43 438
3 44 635
3 45 506
3 46 508
3 47 1113
3 48 462
3 49 887
3 50 501
4 5 207
4 6 548
4 7 514
4 8 808
4 9 470
4 10 166
4 11 372
4 12 912
4 13 833
4 14 748
4 15 369
4 16 656
4 17 551
4 18 683
4 19 668
4 20 495
4 21 682
4 22 124
4 23 641
4 24 500
4 25 340
4 26 913
4 27 742
4 28 715
4 29 515
4 30 407
4 31 783
4 32 638
4 33 761
4 34 260
4 35 259
4 36 385
4 37 52
4 38 522
4 39 445
4 40 544
4 41 454
4 42 80
4 43 545
4 44 428
4 45 427
4 46 478
4 47 778
4 48 472
4 49 1030
4 50 244
5 6 350
5 7 306
5 8 634
5 9 268
5 10 356
5 11 181
5 12 749
5 13 676
5 14 584
5 15 178
5 16 476
5 17 410
5 18 504
5 19 461
5 20 554
5 21 700
5 22 323
5 23 472
5 24 465
5 25 173
5 26 730
5 27 563
5 28 590
5 29 445
5 30 267
5 31 576
5 32 431
5 33 566
5 34 269
5 35 449
5 36 241
5 37 157
5 38 393
5 39 277
5 40 482
5 41 277
5 42 231
5 43 423
5 44 239
5 45 285
5 46 332
5 47 580
5 48 344
5 49 851
5 50 174
6 7 152
6 8 308
6 9 86
6 10 705
6 11 175
6 12 686
6 13 382
6 14 285
6 15 294
6 16 157
6 17 491
6 18 180
6 19 218
6 20 853
6 21 950
6 22 670
6 23 185
6 24 693
6 25 352
6 26 598
6 27 233
6 28 651
6 29 634
6 30 423
6 31 324
6 32 190
6 33 216
6 34 579
6 35 752
6 36 408
6 37 495
6 38 507
6 39 151
6 40 674
6 41 337
6 42 582
6 43 536
6 44 294
6 45 425
6 46 438
6 47 230
6 48 480
6 49 719
6 50 470
7 8 447
7 9 110
7 10 653
7 11 192
7 12 552
7 13 531
7 14 435
7 15 179
7 16 306
7 17 340
7 18 327
7 19 155
7 20 735
7 21 814
7 22 625
7 23 338
7 24 557
7 25 237
7 26 484
7 27 373
7 28 499
7 29 492
7 30 287
7 31 272
7 32 124
7 33 325
7 34 478
7 35 750
7 36 277
7 37 464
7 38 357
7 39 248
7 40 530
7 41 192
7 42 527
7 43 386
7 44 157
7 45 285
7 46 291
7 47 325
7 48 335
7 49 608
7 50 373
8 9 391
8 10 974
8 11 453
8 12 900
8 13 111
8 14 81
8 15 602
8 16 158
8 17 784
8 18 130
8 19 423
8 20 1160
8 21 1258
8 22 933
8 23 168
8 24 1000
8 25 660
8 26 778
8 27 74
8 28 926
8 29 939
8 30 730
8 31 464
8 32 413
8 33 155
8 34 882
8 35 965
8 36 716
8 37 758
8 38 804
8 39 364
8 40 978
8 41 640
8 42 858
8 43 832
8 44 600
8 45 730
8 46 738
8 47 181
8 48 782
8 49 882
8 50 773
9 10 624
9 11 105
9 12 663
9 13 459
9 14 361
9 15 212
9 16 236
9 17 429
9 18 262
9 19 236
9 20 768
9 21 870
9 22 590
9 23 254
9 24 614
9 25 269
9 26 592
9 27 317
9 28 598
9 29 559
9 30 346
9 31 352
9 32 203
9 33 301
9 34 493
9 35 686
9 36 329
9 37 418
9 38 439
9 39 138
9 40 599
9 41 268
9 42 500
9 43 470
9 44 221
9 45 350
9 46 368
9 47 313
9 48 408
9 49 715
9 50 384
10 11 532
10 12 981
10 13 999
10 14 915
10 15 490
10 16 820
10 17 616
10 18 848
10 19 805
10 20 405
10 21 610
10 22 46
10 23 807
10 24 486
10 25 447
10 26 1005
10 27 907
10 28 757
10 29 527
10 30 485
10 31 914
10 32 777
10 33 920
10 34 270
10 35 248
10 36 469
10 37 216
10 38 579
10 39 610
10 40 547
10 41 557
10 42 125
10 43 596
10 44 543
10 45 505
10 46 553
10 47 936
10 48 534
10 49 1115
10 50 317
11 12 729
11 13 501
11 14 407
11 15 200
11 16 295
11 17 450
11 18 323
11 19 336
11 20 718
11 21 842
11 22 495
11 23 294
11 24 591
11 25 243
11 26 673
11 27 381
11 28 630
11 29 549
11 30 338
11 31 454
11 32 304
11 33 388
11 34 434
11 35 581
11 36 316
11 37 320
11 38 451
11 39 109
11 40 588
11 41 287
11 42 410
11 43 482
11 44 237
11 45 348
11 46 379
11 47 405
11 48 411
11 49 797
11 50 328
12 13 1007
12 14 924
12 15 573
12 16 809
12 17 365
12 18 819
12 19 485
12 20 800
12 21 729
12 22 977
12 23 856
12 24 571
12 25 580
12 26 150
12 27 842
12 28 257
12 29 493
12 30 505
12 31 440
12 32 505
12 33 745
12 34 714
12 35 1171
12 36 527
12 37 879
12 38 401
12 39 801
12 40 498
12 41 472
12 42 879
12 43 387
12 44 514
12 45 485
12 46 434
12 47 721
12 48 446
12 49 167
12 50 673
13 14 97
13 15 671
13 16 224
13 17 871
13 18 203
13 19 525
13 20 1218
13 21 1330
13 22 956
13 23 207
13 24 1073
13 25 726
13 26 887
13 27 166
13 28 1021
13 29 1017
13 30 804
13 31 573
13 32 513
13 33 264
13 34 936
13 35 962
13 36 788
13 37 784
13 38 888
13 39 399
13 40 1056
13 41 720
13 42 890
13 43 917
13 44 677
13 45 807
13 46 820
13 47 292
13 48 862
13 49 992
13 50 828
14 15 574
14 16 128
14 17 775
14 18 109
14 19 439
14 20 1123
14 21 1232
14 22 873
14 23 112
14 24 976
14 25 629
14 26 810
14 27 86
14 28 927
14 29 919
14 30 707
14 31 498
14 32 424
14 33 195
14 34 841
14 35 893
14 36 691
14 37 699
14 38 792
14 39 308
14 40 959
14 41 623
14 42 802
14 43 821
14 44 580
14 45 710
14 46 723
14 47 227
14 48 765
14 49 920
14 50 733
15 16 449
15 17 256
15 18 474
15 19 319
15 20 561
15 21 658
15 22 467
15 23 465
15 24 402
15 25 59
15 26 551
15 27 527
15 28 438
15 29 352
15 30 139
15 31 424
15 32 293
15 33 496
15 34 299
15 35 623
15 36 119
15 37 326
15 38 251
15 39 306
15 40 392
15 41 101
15 42 366
15 43 283
15 44 61
15 45 147
15 46 181
15 47 500
15 48 210
15 49 672
15 50 194
16 17 647
16 18 27
16 19 324
16 20 1003
16 21 1107
16 22 781
16 23 54
16 24 850
16 25 506
16 26 704
16 27 86
16 28 801
16 29 792
16 30 580
16 31 399
16 32 305
16 33 140
16 34 724
16 35 827
16 36 565
16 37 604
16 38 663
16 39 211
16 40 831
16 41 495
16 42 702
16 43 693
16 44 452
16 45 582
16 46 595
16 47 171
16 48 637
16 49 818
16 50 616
17 18 667
17 19 391
17 20 497
17 21 510
17 22 611
17 23 677
17 24 272
17 25 238
17 26 401
17 27 711
17 28 182
17 29 189
17 30 146
17 31 443
17 32 385
17 33 648
17 34 351
17 35 809
17 36 171
17 37 522
17 38 42
17 39 550
17 40 218
17 41 163
17 42 514
17 43 54
17 44 214
17 45 127
17 46 78
17 47 640
17 48 81
17 49 502
17 50 308
18 19 333
18 20 1029
18 21 1131
18 22 808
18 23 66
18 24 874
18 25 531
18 26 710
18 27 58
18 28 818
18 29 815
18 30 604
18 31 402
18 32 316
18 33 125
18 34 751
18 35 853
18 36 589
18 37 632
18 38 685
18 39 239
18 40 854
18 41 517
18 42 730
18 43 714
18 44 475
18 45 606
18 46 617
18 47 157
18 48 660
18 49 822
18 50 642
19 20 848
19 21 897
19 22 778
19 23 372
19 24 646
19 25 372
19 26 383
19 27 359
19 28 509
19 29 571
19 30 393
19 31 118
19 32 32
19 33 272
19 34 611
19 35 905
19 36 391
19 37 619
19 38 422
19 39 361
19 40 605
19 41 291
19 42 679
19 43 444
19 44 277
19 45 384
19 46 370
19 47 257
19 48 416
19 49 502
19 50 511
20 21 208
20 22 439
20 23 1011
20 24 231
20 25 502
20 26 881
20 27 1085
20 28 543
20 29 316
20 30 455
20 31 926
20 32 831
20 33 1057
20 34 285
20 35 652
20 36 460
20 37 516
20 38 455
20 39 824
20 40 303
20 41 557
20 42 415
20 43 449
20 44 579
20 45 463
20 46 484
20 47 1060
20 48 440
20 49 962
20 50 390
21 22 641
21 23 1123
21 24 257
21 25 603
21 26 839
21 27 1183
21 28 482
21 29 326
21 30 528
21 31 954
21 32 888
21 33 1138
21 34 440
21 35 858
21 36 542
21 37 695
21 38 476
21 39 951
21 40 292
21 41 622
21 42 604
21 43 456
21 44 658
21 45 528
21 46 529
21 47 1135
21 48 483
21 49 896
21 50 526
22 23 765
22 24 502
22 25 428
22 26 994
22 27 867
22 28 760
22 29 537
22 30 476
22 31 890
22 32 749
22 33 884
22 34 275
22 35 222
22 36 457
22 37 176
22 38 576
22 39 569
22 40 559
22 41 541
22 42 102
22 43 595
22 44 523
22 45 496
22 46 545
22 47 900
22 48 530
22 49 1106
22 50 306
23 24 868
23 25 520
23 26 753
23 27 112
23 28 836
23 29 814
23 30 600
23 31 452
23 32 350
23 33 190
23 34 729
23 35 798
23 36 583
23 37 590
23 38 691
23 39 197
23 40 853
23 41 520
23 42 692
23 43 721
23 44 475
23 45 604
23 46 621
23 47 223
23 48 661
23 49 869
23 50 621
24 25 349
24 26 649
24 27 926
24 28 316
24 29 84
24 30 270
24 31 712
24 32 635
24 33 881
24 34 239
24 35 724
24 36 285
24 37 497
24 38 232
24 39 701
24 40 74
24 41 366
24 42 432
24 43 221
24 44 400
24 45 271
24 46 276
24 47 879
24 48 230
24 49 731
24 50 293
25 26 573
25 27 585
25 28 419
25 29 305
25 30 100
25 31 473
25 32 348
25 33 555
25 34 241
25 35 598
25 36 75
25 37 301
25 38 224
25 39 352
25 40 345
25 41 114
25 42 326
25 43 255
25 44 97
25 45 115
25 46 159
25 47 560
25 48 177
25 49 691
25 50 139
26 27 725
26 28 357
26 29 566
26 30 519
26 31 313
26 32 408
26 33 623
26 34 749
26 35 1171
26 36 536
26 37 874
26 38 443
26 39 729
26 40 580
26 41 458
26 42 892
26 43 439
26 44 490
26 45 499
26 46 452
26 47 597
26 48 478
26 49 124
26 50 687
27 28 857
27 29 865
27 30 655
27 31 413
27 32 347
27 33 109
27 34 808
27 35 909
27 36 641
27 37 691
27 38 731
27 39 297
27 40 903
27 41 565
27 42 789
27 43 759
27 44 525
27 45 656
27 46 665
27 47 141
27 48 708
27 49 834
27 50 699
28 29 242
28 30 323
28 31 524
28 32 513
28 33 780
28 34 486
28 35 968
28 36 349
28 37 692
28 38 198
28 39 725
28 40 242
28 41 342
28 42 668
28 43 170
28 44 393
28 45 305
28 46 260
28 47 766
28 48 248
28 49 421
28 50 471
29 30 214
29 31 631
29 32 561
29 33 814
29 34 262
29 35 754
29 36 233
29 37 503
29 38 151
29 39 657
29 40 39
29 41 299
29 42 455
29 43 137
29 44 340
29 45 209
29 46 203
29 47 810
29 48 157
29 49 650
29 50 285
30 31 478
30 32 376
30 33 612
30 34 238
30 35 665
30 36 25
30 37 376
30 38 126
30 39 445
30 40 253
30 41 102
30 42 375
30 43 156
30 44 130
30 45 20
30 46 71
30 47 611
30 48 78
30 49 630
30 50 169
31 32 150
31 33 309
31 34 707
31 35 1022
31 36 480
31 37 734
31 38 480
31 39 473
31 40 662
31 41 379
31 42 790
31 43 497
31 44 376
31 45 466
31 46 441
31 47 283
31 48 486
31 49 421
31 50 613
32 33 266
32 34 589
32 35 873
32 36 372
32 37 589
32 38 414
32 39 330
32 40 596
32 41 274
32 42 651
32 43 438
32 44 256
32 45 368
32 46 358
32 47 255
32 48 405
32 49 529
32 50 487
33 34 790
33 35 951
33 36 602
33 37 708
33 38 673
33 39 330
33 40 851
33 41 515
33 42 798
33 43 699
33 44 482
33 45 610
33 46 611
33 47 33
33 48 656
33 49 728
33 50 682
34 35 491
34 36 229
34 37 261
34 38 312
34 39 540
34 40 288
34 41 329
34 42 193
34 43 327
34 44 334
34 45 255
34 46 297
34 47 797
34 48 271
34 49 854
34 50 109
35 36 644
35 37 297
35 38 778
35 39 621
35 40 779
35 41 712
35 42 300
35 43 800
35 44 683
35 45 686
35 46 736
35 47 973
35 48 729
35 49 1289
35 50 500
36 37 353
36 38 151
36 39 424
36 40 273
36 41 101
36 42 356
36 43 181
36 44 120
36 45 43
36 46 94
36 47 602
36 48 103
36 49 649
36 50 151
37 38 496
37 39 393
37 40 535
37 41 415
37 42 111
37 43 521
37 44 386
37 45 396
37 46 447
37 47 725
37 48 446
37 49 992
37 50 223
38 39 553
38 40 183
38 41 170
38 42 480
38 43 31
38 44 219
38 45 109
38 46 71
38 47 666
38 48 50
38 49 543
38 50 277
39 40 697
39 41 386
39 42 494
39 43 585
39 44 335
39 45 454
39 46 482
39 47 353
39 48 516
39 49 852
39 50 435
40 41 338
40 42 481
40 43 164
40 44 379
40 45 249
40 46 240
40 47 846
40 48 195
40 49 659
40 50 319
41 42 439
41 43 201
41 44 50
41 45 95
41 46 100
41 47 513
41 48 142
41 49 577
41 50 242
42 43 501
42 44 421
42 45 395
42 46 445
42 47 812
42 48 433
42 49 1006
42 50 206
43 44 250
43 45 140
43 46 103
43 47 691
43 48 78
43 49 534
43 50 301
44 45 130
44 46 147
44 47 482
44 48 186
44 49 611
44 50 236
45 46 50
45 47 608
45 48 63
45 49 610
45 50 189
46 47 606
46 48 46
46 49 561
46 50 239
47 48 652
47 49 700
47 50 689
48 49 583
48 50 228
49 50 800
